% MaxCore 10000
! PAL8
! REVDSD-PBEP86-D4/2021 def2-TZVPP def2-TZVPP/c
! Opt
! NumFreq
%scf
   Convergence    VeryTight
end
%geom
   MaxIter        500
   Convergence    Tight
end
* xyzfile 0 2 path_init_forw.xyz
