% MaxCore 6000
! PAL8
! REVDSD-PBEP86-D4/2021 def2-TZVPP def2-TZVPP/c
! VeryTightSCF DefGrid3
! Opt
! NumFreq
* xyzfile 0 1 guess.xyz
